NAME: random75
TYPE: TSP
DIMENSION: 75
EDGE_WEIGHT_TYPE: EXPLICIT
EDGE_WEIGHT_FORMAT: FULL_MATRIX
EDGE_WEIGHT_SECTION
0 121 121 121 121 121 121 39 34 121 121 121 121 121 38 121 121 121 121 121 121 38 121 20 121 39 121 121 29 121 121 121 121 121 121 121 37 23 121 121 22 121 2 18 121 121 28 40 121 47 121 28 121 121 45 34 121 14 121 121 121 34 121 121 21 121 121 121 121 121 121 121 19 121 121
121 0 121 121 51 121 26 121 121 121 121 121 15 26 121 121 121 121 121 21 121 121 121 121 121 121 121 121 121 1 121 121 40 121 121 121 121 121 121 121 121 121 121 121 17 121 121 121 121 121 121 121 121 121 121 121 121 121 121 121 121 121 121 121 121 33 22 9 121 121 121 121 121 121 26
121 121 0 121 121 13 121 121 121 121 121 121 121 18 121 121 15 121 121 121 121 121 29 121 121 121 13 121 121 121 13 26 121 14 10 21 24 121 121 121 121 121 121 121 121 17 121 121 6 121 15 21 23 121 121 121 121 121 30 15 121 121 39 121 35 121 121 34 8 121 27 23 121 121 25
121 121 121 0 37 121 121 121 121 11 121 34 121 121 121 5 121 37 28 121 21 121 121 121 121 121 121 32 121 121 121 33 121 121 121 31 35 121 28 10 121 121 121 121 121 121 121 121 121 121 36 121 121 22 121 121 12 121 121 37 15 121 12 21 121 121 121 121 121 121 121 121 121 26 121
121 51 121 37 0 121 121 121 121 28 121 121 38 121 121 31 121 121 29 121 39 121 121 121 121 121 121 18 121 51 121 24 121 121 121 46 121 121 121 34 121 20 121 121 35 33 121 121 121 121 121 121 121 121 121 121 46 121 121 35 49 121 29 121 121 26 121 48 121 121 121 29 121 121 121
121 121 13 121 121 0 121 121 121 121 121 121 121 13 121 121 15 121 121 31 121 121 121 121 121 121 23 21 121 121 5 16 121 24 14 121 121 121 121 121 121 18 121 121 30 8 121 121 18 121 20 121 31 121 121 121 121 121 121 10 121 121 34 121 121 13 121 26 13 121 121 10 121 121 24
121 26 121 121 121 121 0 121 121 121 53 121 121 16 121 121 14 121 121 6 121 121 26 121 36 121 21 121 121 28 121 121 14 121 121 121 121 121 121 121 121 121 121 121 121 121 121 121 121 121 121 121 17 121 121 121 121 121 121 121 121 121 121 121 121 121 8 19 121 25 121 34 121 121 4
39 121 121 121 121 121 121 0 18 121 121 3 121 121 121 121 121 20 121 121 54 121 121 19 121 25 121 121 16 121 121 121 121 121 121 33 30 121 13 121 36 121 121 22 121 121 13 16 121 28 121 121 121 16 27 121 24 121 121 121 36 121 121 15 121 121 121 121 121 121 121 121 121 10 121
34 121 121 121 121 121 121 18 0 121 121 20 121 121 121 121 121 28 121 121 121 121 121 22 121 8 121 121 6 121 121 121 121 121 121 121 121 121 121 121 121 121 36 24 121 121 22 6 121 14 121 121 121 121 13 68 121 49 121 121 121 121 121 121 121 121 121 121 121 121 121 121 121 121 121
121 121 121 11 28 121 121 121 121 0 121 121 121 121 121 6 121 46 18 121 16 121 121 121 121 121 121 29 121 121 121 32 121 121 121 37 121 121 121 6 121 36 121 121 59 121 121 121 121 121 121 121 121 121 121 121 23 121 121 38 21 121 14 121 121 121 121 121 121 121 121 121 121 121 121
121 121 121 121 121 121 53 121 121 121 0 121 121 121 8 121 121 121 121 121 121 16 27 121 17 121 121 121 121 121 121 121 39 40 121 121 121 21 121 121 121 121 121 121 121 121 121 121 121 121 121 41 37 121 121 17 121 29 21 121 121 11 121 121 28 121 59 121 121 28 27 121 121 121 121
121 121 121 34 121 121 121 3 20 121 121 0 121 121 121 121 121 19 121 121 52 121 121 21 121 121 121 121 18 121 121 121 121 121 121 33 29 121 11 43 37 121 121 24 121 121 14 18 121 29 38 42 121 14 29 121 22 121 121 121 33 121 121 13 121 121 121 121 121 121 121 121 121 8 121
121 15 121 121 38 121 121 121 121 121 121 121 0 29 121 121 121 121 121 33 121 121 121 121 121 121 121 34 121 14 121 35 121 121 121 121 121 121 121 121 121 27 121 121 3 121 121 121 121 121 121 121 121 121 121 121 121 121 121 121 121 121 55 121 121 25 34 17 121 121 121 26 121 121 121
121 26 18 121 121 13 16 121 121 121 121 121 29 0 121 121 6 121 121 18 121 121 121 121 121 121 19 121 121 121 18 28 24 21 10 121 121 121 121 121 121 27 121 121 27 21 121 121 121 121 121 121 23 121 121 121 121 121 121 23 121 121 121 121 121 21 21 16 11 34 121 19 121 121 12
38 121 121 121 121 121 121 121 121 121 8 121 121 121 0 121 121 121 121 121 121 20 121 121 24 121 121 121 121 121 121 121 121 121 121 121 121 16 121 121 121 121 121 121 121 121 121 121 121 121 121 121 121 121 121 9 121 24 24 121 121 4 121 121 25 121 66 121 121 121 121 121 121 121 121
121 121 121 5 31 121 121 121 121 6 121 121 121 121 121 0 121 42 24 121 21 121 121 121 121 121 121 28 121 121 121 30 121 121 121 32 121 121 33 9 121 36 121 121 121 121 121 121 121 121 121 121 121 26 121 121 17 121 121 35 19 121 10 121 121 121 121 121 121 121 121 121 121 121 121
121 121 15 121 121 15 14 121 121 121 121 121 121 6 121 121 0 121 121 18 121 121 27 121 121 121 13 121 121 121 121 121 19 15 6 121 121 121 121 121 121 121 121 121 121 121 121 121 21 121 121 121 17 121 121 121 121 121 34 121 121 121 121 121 121 26 21 21 7 28 27 23 121 121 10
121 121 121 37 121 121 121 20 28 46 121 19 121 121 121 42 121 0 59 121 47 121 121 39 121 31 121 121 31 121 121 121 121 121 121 121 46 121 11 43 121 121 121 121 121 121 33 23 121 28 121 121 121 26 29 92 29 121 121 121 28 121 46 24 121 121 121 121 121 121 121 121 121 19 121
121 121 121 28 29 121 121 121 121 18 121 121 121 121 121 24 121 59 0 121 13 121 121 121 121 121 121 39 121 121 121 44 121 121 121 121 121 121 54 18 121 45 121 121 121 121 121 121 121 121 121 121 121 121 121 121 40 121 121 121 31 121 31 121 121 121 121 121 121 121 121 121 121 121 121
121 21 121 121 121 31 6 121 121 121 121 121 33 18 121 121 18 121 121 0 121 121 121 121 42 121 121 121 121 22 121 121 20 121 23 121 121 121 121 121 121 121 121 121 121 121 121 121 121 121 121 121 23 121 121 121 121 121 121 121 121 121 121 121 121 37 3 16 121 31 121 35 121 121 9
121 121 121 21 39 121 121 54 121 16 121 52 121 121 121 21 121 47 13 121 0 121 121 121 121 121 121 121 121 121 121 121 121 121 121 121 121 121 43 12 121 121 121 121 121 121 121 121 121 121 121 121 121 121 121 121 32 121 121 121 19 121 30 40 121 121 121 121 121 121 121 121 121 44 121
38 121 121 121 121 121 121 121 121 121 16 121 121 121 20 121 121 121 121 121 121 0 15 121 11 121 121 121 121 121 121 121 27 24 121 121 121 18 121 121 31 121 36 121 121 121 121 121 33 121 121 26 24 121 121 27 121 25 5 121 121 19 121 121 18 121 48 121 121 17 12 121 20 121 121
121 121 29 121 121 121 26 121 121 121 27 121 121 121 121 121 27 121 121 121 121 15 0 121 11 121 16 121 121 121 121 121 13 15 121 121 121 121 121 121 121 121 121 121 121 121 121 121 121 121 121 30 10 121 121 121 121 121 13 121 121 121 121 121 29 121 33 121 121 4 4 121 121 121 27
20 121 121 121 121 121 121 19 22 121 121 21 121 121 121 121 121 39 121 121 121 121 121 0 121 30 121 121 16 121 121 121 121 121 121 121 24 121 121 121 19 121 20 3 121 121 8 26 121 121 121 26 121 27 121 53 121 31 121 121 121 121 121 121 121 121 121 121 121 121 121 121 29 121 121
121 121 121 121 121 121 36 121 121 121 17 121 121 121 24 121 121 121 121 42 121 11 11 121 0 121 26 121 121 121 121 121 22 25 121 121 121 28 121 121 121 121 121 121 121 121 121 121 38 121 121 35 21 121 121 32 121 35 12 121 121 25 121 121 28 121 42 121 121 11 12 121 31 121 37
39 121 121 121 121 121 121 25 8 121 121 121 121 121 121 121 121 31 121 121 121 121 121 30 121 0 121 121 14 121 121 121 121 121 121 121 121 62 121 121 49 121 41 32 121 121 30 10 121 8 121 121 121 121 6 73 121 54 121 121 121 73 121 121 58 121 121 121 121 121 121 121 56 121 121
121 121 13 121 121 23 21 121 121 121 121 121 121 19 121 121 13 121 121 121 121 121 16 121 26 121 0 121 121 121 24 121 16 2 10 121 121 121 121 121 121 121 121 121 121 28 121 121 15 121 27 23 10 121 121 121 121 121 21 28 121 121 121 121 121 121 121 34 10 19 15 33 121 121 19
121 121 121 32 18 21 121 121 121 29 121 121 34 121 121 28 121 121 39 121 121 121 121 121 121 121 121 0 121 121 19 6 121 121 121 29 121 121 121 35 121 7 121 121 32 15 121 121 121 121 28 121 121 121 121 121 37 121 121 17 121 121 21 121 121 13 121 38 121 121 121 14 121 121 121
29 121 121 121 121 121 121 16 6 121 121 18 121 121 121 121 121 31 121 121 121 121 121 16 121 14 121 121 0 121 121 121 121 121 121 121 37 51 28 121 35 121 30 18 121 121 17 11 121 21 121 121 121 31 19 63 121 43 121 121 121 121 121 121 121 121 121 121 121 121 121 121 43 26 121
121 1 121 121 51 121 28 121 121 121 121 121 14 121 121 121 121 121 121 22 121 121 121 121 121 121 121 121 121 0 121 121 121 121 121 121 121 121 121 121 121 37 121 121 16 121 121 121 121 121 121 121 121 121 121 121 121 121 121 121 121 121 121 121 121 33 23 10 121 121 121 33 121 121 27
121 121 13 121 121 5 121 121 121 121 121 121 121 18 121 121 121 121 121 121 121 121 121 121 121 121 24 19 121 121 0 13 121 26 17 20 121 121 121 121 121 18 121 121 121 4 121 121 16 121 16 31 121 121 121 121 121 121 121 5 121 121 30 121 121 121 121 32 15 121 121 12 121 121 121
121 121 26 33 24 16 121 121 121 32 121 121 35 28 121 30 121 121 44 121 121 121 121 121 121 121 121 6 121 121 13 0 121 121 121 25 31 121 121 121 121 8 121 121 33 10 121 121 28 121 23 121 121 40 121 121 36 121 121 11 121 121 21 121 121 11 121 37 28 121 121 11 121 121 121
121 40 121 121 121 121 14 121 121 121 39 121 121 24 121 121 19 121 121 20 121 27 13 121 22 121 16 121 121 121 121 121 0 16 21 121 121 121 121 121 121 121 121 121 121 121 121 121 121 121 121 121 6 121 121 121 121 121 121 121 121 121 121 121 121 121 21 33 121 11 16 121 121 121 15
121 121 14 121 121 24 121 121 121 121 40 121 121 21 121 121 15 121 121 121 121 24 15 121 25 121 2 121 121 121 26 121 16 0 12 33 33 37 121 121 29 121 121 121 121 30 121 121 15 121 27 22 10 121 121 121 121 41 19 29 121 121 121 121 30 121 121 121 12 18 13 121 31 121 20
121 121 10 121 121 14 121 121 121 121 121 121 121 10 121 121 6 121 121 23 121 121 121 121 121 121 10 121 121 121 17 121 21 12 0 121 121 121 121 121 121 121 121 121 121 21 121 121 15 121 121 121 17 121 121 121 121 121 121 121 121 121 121 121 121 121 121 26 2 121 25 23 121 121 15
121 121 21 31 46 121 121 33 121 37 121 33 121 121 121 32 121 121 121 121 121 121 121 121 121 121 121 29 121 121 20 25 121 33 121 0 6 121 37 41 23 33 121 30 121 20 26 121 18 121 6 23 121 22 121 121 25 121 121 17 43 121 24 25 121 121 121 121 121 121 121 31 38 29 121
37 121 24 35 121 121 121 30 121 121 121 29 121 121 121 121 121 46 121 121 121 121 121 24 121 121 121 121 37 121 121 31 121 33 121 6 0 121 35 121 18 121 36 24 121 121 21 121 19 121 10 19 121 21 121 121 26 41 41 22 121 121 28 24 34 121 121 121 121 121 121 121 33 27 121
23 121 121 121 121 121 121 121 121 121 21 121 121 121 16 121 121 121 121 121 121 18 121 121 28 62 121 121 51 121 121 121 121 37 121 121 121 0 121 121 27 121 21 36 121 121 121 121 121 121 121 26 121 121 68 16 121 8 20 121 121 13 121 121 10 121 65 121 121 121 29 121 11 121 121
121 121 121 28 121 121 121 13 121 121 121 11 121 121 121 33 121 11 54 121 43 121 121 121 121 121 121 121 28 121 121 121 121 121 121 37 35 121 0 36 121 121 121 121 121 121 25 24 121 33 121 121 121 15 121 121 18 121 121 121 24 121 36 12 121 121 121 121 121 121 121 121 121 8 121
121 121 121 10 34 121 121 121 121 6 121 43 121 121 121 9 121 43 18 121 12 121 121 121 121 121 121 35 121 121 121 121 121 121 121 41 121 121 36 0 121 121 121 121 121 121 121 121 121 121 121 121 121 121 121 121 22 121 121 121 16 121 18 31 121 121 121 121 121 121 121 121 121 121 121
22 121 121 121 121 121 121 36 121 121 121 37 121 121 121 121 121 121 121 121 121 31 121 19 121 49 121 121 35 121 121 121 121 29 121 23 18 27 121 121 0 121 20 18 121 121 23 121 22 121 22 7 121 35 121 43 42 23 28 34 121 121 121 121 17 121 121 121 121 121 121 121 16 38 121
121 121 121 121 20 18 121 121 121 36 121 121 27 27 121 36 121 121 45 121 121 121 121 121 121 121 121 7 121 37 18 8 121 121 121 33 121 121 121 121 121 0 121 121 25 15 121 121 121 121 121 121 121 121 121 121 121 121 121 18 121 121 28 121 121 6 121 31 121 121 121 8 121 121 38
2 121 121 121 121 121 121 121 36 121 121 121 121 121 121 121 121 121 121 121 121 36 121 20 121 41 121 121 30 121 121 121 121 121 121 121 36 21 121 121 20 121 0 18 121 121 28 121 121 121 42 26 121 46 47 34 121 13 35 121 121 33 121 121 18 121 121 121 121 121 121 121 16 121 121
18 121 121 121 121 121 121 22 24 121 121 24 121 121 121 121 121 121 121 121 121 121 121 3 121 32 121 121 18 121 121 121 121 121 121 30 24 36 121 121 18 121 18 0 121 121 10 28 121 121 33 25 121 29 37 50 121 29 121 121 121 121 121 121 29 121 121 121 121 121 121 121 27 121 121
121 17 121 121 35 30 121 121 121 59 121 121 3 27 121 121 121 121 121 121 121 121 121 121 121 121 121 32 121 16 121 33 121 121 121 121 121 121 121 121 121 25 121 121 0 34 121 121 121 121 121 121 121 121 121 121 121 121 121 121 121 121 52 121 121 22 35 17 121 121 121 24 121 121 34
121 121 17 121 33 8 121 121 121 121 121 121 121 21 121 121 121 121 121 121 121 121 121 121 121 121 28 15 121 121 4 10 121 30 21 20 121 121 121 121 121 15 121 121 34 0 121 121 19 121 16 121 121 121 121 121 38 121 121 3 121 121 26 121 121 13 121 33 19 121 121 11 121 121 32
28 121 121 121 121 121 121 13 22 121 121 14 121 121 121 121 121 33 121 121 121 121 121 8 121 30 121 121 17 121 121 121 121 121 121 26 21 121 25 121 23 121 28 10 121 121 0 24 38 36 30 29 121 19 121 121 28 38 121 43 44 121 40 20 37 121 121 121 121 121 121 121 35 18 121
40 121 121 121 121 121 121 16 6 121 121 18 121 121 121 121 121 23 121 121 121 121 121 26 121 10 121 121 11 121 121 121 121 121 121 121 121 121 24 121 121 121 121 28 121 121 24 0 121 12 121 121 121 32 11 74 121 54 121 121 48 121 121 121 121 121 121 121 121 121 121 121 121 25 121
121 121 6 121 121 18 121 121 121 121 121 121 121 121 121 121 21 121 121 121 121 33 121 121 38 121 15 121 121 121 16 28 121 15 15 18 19 121 121 121 22 121 121 121 121 19 38 121 0 121 12 16 26 40 121 121 43 121 29 17 121 121 38 121 31 121 121 121 13 121 27 121 31 121 121
47 121 121 121 121 121 121 28 14 121 121 29 121 121 121 121 121 28 121 121 121 121 121 121 121 8 121 121 21 121 121 121 121 121 121 121 121 121 33 121 121 121 121 121 121 121 36 12 121 0 121 121 121 121 2 81 121 121 121 121 121 121 121 121 121 121 121 121 121 121 121 121 121 121 121
121 121 15 36 121 20 121 121 121 121 121 38 121 121 121 121 121 121 121 121 121 121 121 121 121 121 27 28 121 121 16 23 121 27 121 6 10 121 121 121 22 121 42 33 121 16 30 121 12 121 0 20 121 28 121 121 31 121 39 13 121 121 27 31 36 121 121 121 121 121 38 121 36 121 121
28 121 21 121 121 121 121 121 121 121 41 42 121 121 121 121 121 121 121 121 121 26 30 26 35 121 23 121 121 121 31 121 121 22 121 23 19 26 121 121 7 121 26 25 121 121 29 121 16 121 20 0 31 39 121 43 45 25 22 31 121 37 46 121 16 121 121 121 28 121 26 121 16 121 121
121 121 23 121 121 31 17 121 121 121 37 121 121 23 121 121 17 121 121 23 121 24 10 121 21 121 10 121 121 121 121 121 6 10 17 121 121 121 121 121 121 121 121 121 121 121 121 121 26 121 121 31 0 121 121 121 121 121 21 37 121 121 121 121 35 121 24 35 18 11 12 40 121 121 17
121 121 121 22 121 121 121 16 121 121 121 14 121 121 121 26 121 26 121 121 121 121 121 27 121 121 121 121 31 121 121 40 121 121 121 22 21 121 15 121 35 121 46 29 121 121 19 32 40 121 28 39 121 0 121 121 9 121 121 37 26 121 24 3 121 121 121 121 121 121 121 121 50 8 121
45 121 121 121 121 121 121 27 13 121 121 29 121 121 121 121 121 29 121 121 121 121 121 121 121 6 121 121 19 121 121 121 121 121 121 121 121 68 121 121 121 121 47 37 121 121 121 11 121 2 121 121 121 121 0 78 121 60 121 121 121 121 121 121 121 121 121 121 121 121 121 121 121 121 121
34 121 121 121 121 121 121 121 68 121 17 121 121 121 9 121 121 92 121 121 121 27 121 53 32 73 121 121 63 121 121 121 121 121 121 121 121 16 121 121 43 121 34 50 121 121 121 74 121 81 121 43 121 121 78 0 121 21 30 121 121 8 121 121 27 121 121 121 121 121 121 121 28 121 121
121 121 121 12 46 121 121 24 121 23 121 22 121 121 121 17 121 29 40 121 32 121 121 121 121 121 121 37 121 121 121 36 121 121 121 25 26 121 18 22 42 121 121 121 121 38 28 121 43 121 31 45 121 9 121 121 0 121 121 36 19 121 17 9 121 121 121 121 121 121 121 121 121 14 121
14 121 121 121 121 121 121 121 49 121 29 121 121 121 24 121 121 121 121 121 121 25 121 31 35 54 121 121 43 121 121 121 121 41 121 121 41 8 121 121 23 121 13 29 121 121 38 54 121 121 121 25 121 121 60 21 121 0 26 121 121 20 121 121 11 121 121 121 121 121 121 121 10 121 121
121 121 30 121 121 121 121 121 121 121 21 121 121 121 24 121 34 121 121 121 121 5 13 121 12 121 21 121 121 121 121 121 121 19 121 121 41 20 121 121 28 121 35 121 121 121 121 121 29 121 39 22 21 121 121 30 121 26 0 45 121 23 121 121 17 121 45 121 121 16 9 121 19 121 121
121 121 15 37 35 10 121 121 121 38 121 121 121 23 121 35 121 121 121 121 121 121 121 121 121 121 28 17 121 121 5 11 121 29 121 17 22 121 121 121 34 18 121 121 121 3 43 121 17 121 13 31 37 37 121 121 36 121 45 0 51 121 25 39 121 16 121 121 19 121 121 14 121 121 121
121 121 121 15 49 121 121 36 121 21 121 33 121 121 121 19 121 28 31 121 19 121 121 121 121 121 121 121 121 121 121 121 121 121 121 43 121 121 24 16 121 121 121 121 121 121 44 48 121 121 121 121 121 26 121 121 19 121 121 51 0 121 27 24 121 121 121 121 121 121 121 121 121 26 121
34 121 121 121 121 121 121 121 121 121 11 121 121 121 4 121 121 121 121 121 121 19 121 121 25 73 121 121 121 121 121 121 121 121 121 121 121 13 121 121 121 121 33 121 121 121 121 121 121 121 121 37 121 121 121 8 121 20 23 121 121 0 121 121 22 121 66 121 121 35 31 121 23 121 121
121 121 39 12 29 34 121 121 121 14 121 121 55 121 121 10 121 46 31 121 30 121 121 121 121 121 121 21 121 121 30 21 121 121 121 24 28 121 36 18 121 28 121 121 52 26 40 121 38 121 27 46 121 24 121 121 17 121 121 25 27 121 0 25 121 32 121 121 121 121 121 32 121 31 121
121 121 121 21 121 121 121 15 121 121 121 13 121 121 121 121 121 24 121 121 40 121 121 121 121 121 121 121 121 121 121 121 121 121 121 25 24 121 12 31 121 121 121 121 121 121 20 121 121 121 31 121 121 3 121 121 9 121 121 39 24 121 25 0 121 121 121 121 121 121 121 121 121 6 121
21 121 35 121 121 121 121 121 121 121 28 121 121 121 25 121 121 121 121 121 121 18 29 121 28 58 121 121 121 121 121 121 121 30 121 121 34 10 121 121 17 121 18 29 121 121 37 121 31 121 36 16 35 121 121 27 121 11 17 121 121 22 121 121 0 121 60 121 121 121 25 121 2 121 121
121 33 121 121 26 13 121 121 121 121 121 121 25 21 121 121 26 121 121 37 121 121 121 121 121 121 121 13 121 33 121 11 121 121 121 121 121 121 121 121 121 6 121 121 22 13 121 121 121 121 121 121 121 121 121 121 121 121 121 16 121 121 32 121 121 0 121 26 25 121 121 3 121 121 32
121 22 121 121 121 121 8 121 121 121 59 121 34 21 66 121 21 121 121 3 121 48 33 121 42 121 121 121 121 23 121 121 21 121 121 121 121 65 121 121 121 121 121 121 35 121 121 121 121 121 121 121 24 121 121 121 121 121 45 121 121 66 121 121 60 121 0 18 121 32 36 38 121 121 12
121 9 34 121 48 26 19 121 121 121 121 121 17 16 121 121 21 121 121 16 121 121 121 121 121 121 34 38 121 10 32 37 33 121 26 121 121 121 121 121 121 31 121 121 17 33 121 121 121 121 121 121 35 121 121 121 121 121 121 121 121 121 121 121 121 26 18 0 27 44 121 26 121 121 18
121 121 8 121 121 13 121 121 121 121 121 121 121 11 121 121 7 121 121 121 121 121 121 121 121 121 10 121 121 121 15 28 121 12 2 121 121 121 121 121 121 121 121 121 121 19 121 121 13 121 121 28 18 121 121 121 121 121 121 19 121 121 121 121 121 25 121 27 0 121 25 22 121 121 17
121 121 121 121 121 121 25 121 121 121 28 121 121 34 121 121 28 121 121 31 121 17 4 121 11 121 19 121 121 121 121 121 11 18 121 121 121 121 121 121 121 121 121 121 121 121 121 121 121 121 121 121 11 121 121 121 121 121 16 121 121 35 121 121 121 121 32 44 121 0 8 121 121 121 26
121 121 27 121 121 121 121 121 121 121 27 121 121 121 121 121 27 121 121 121 121 12 4 121 12 121 15 121 121 121 121 121 16 13 25 121 121 29 121 121 121 121 121 121 121 121 121 121 27 121 38 26 12 121 121 121 121 121 9 121 121 31 121 121 25 121 36 121 25 8 0 121 27 121 28
121 121 23 121 29 10 34 121 121 121 121 121 26 19 121 121 23 121 121 35 121 121 121 121 121 121 33 14 121 33 12 11 121 121 23 31 121 121 121 121 121 8 121 121 24 11 121 121 121 121 121 121 40 121 121 121 121 121 121 14 121 121 32 121 121 3 38 26 22 121 121 0 121 121 30
19 121 121 121 121 121 121 121 121 121 121 121 121 121 121 121 121 121 121 121 121 20 121 29 31 56 121 121 43 121 121 121 121 31 121 38 33 11 121 121 16 121 16 27 121 121 35 121 31 121 36 16 121 50 121 28 121 10 19 121 121 23 121 121 2 121 121 121 121 121 27 121 0 121 121
121 121 121 26 121 121 121 10 121 121 121 8 121 121 121 121 121 19 121 121 44 121 121 121 121 121 121 121 26 121 121 121 121 121 121 29 27 121 8 121 38 121 121 121 121 121 18 25 121 121 121 121 121 8 121 121 14 121 121 121 26 121 31 6 121 121 121 121 121 121 121 121 121 0 121
121 26 25 121 121 24 4 121 121 121 121 121 121 12 121 121 10 121 121 9 121 121 27 121 37 121 19 121 121 27 121 121 15 20 15 121 121 121 121 121 121 38 121 121 34 32 121 121 121 121 121 121 17 121 121 121 121 121 121 121 121 121 121 121 121 32 12 18 17 26 28 30 121 121 0
EOF
